N = 8;
H = 6;
T = 2;

avail = array3d(1..N, 1..H, 1..T, [5, 7, 4, 0, 6, 1, 8, 3, 6, 6, 6, 6, 4, 10, 7, 0, 5, 9, 8, 10, 0, 2, 10, 0, 2, 9, 9, 8, 6, 10, 8, 3, 3, 0, 5, 2, 2, 8, 10, 1, 3, 2, 1, 10, 8, 0, 1, 8, 10, 0, 4, 3, 10, 1, 6, 6, 2, 10, 1, 8, 9, 0, 5, 7, 10, 7, 1, 1, 6, 9, 2, 6, 3, 7, 9, 6, 7, 7, 6, 3, 5, 1, 10, 5, 8, 2, 2, 5, 5, 5, 3, 8, 9, 8, 3, 2]);

r = array2d(1..H, 1..T, [2, 2, 2, 1, 3, 1, 0, 2, 3, 2, 0, 2]);
